c max 188  189  194  195  196  197  198  199  228  229  230  239  240  241  242  243  244  245  246  247  251  252  256  257 0
c ind 729  748  751  754  759  762  763  766  767  770  771  774  775  778  781  782  785  788  789  792  795  796  799  800  803  804  805  808  809  812  813  816  817  820  821  824  825  828  829  832  833  836  837  839  840  841 0
c This is a CNF SAT formula in the DIMACS CNF format,
c produced with the bc2cnf translator by Tommi Junttila;
c see http://users.ics.aalto.fi/tjunttil/circuits/index.html
c phi_Gamma_det <-> 1
c phi_Gamma <-> 1
c phi_T_feature_det <-> 1
c phi_T_transitions <-> 1
c phi_T_transitions_consistency <-> 1
c phi_T <-> 1
c phi_sim_leaves <-> 1
c phi_sim_transition <-> 1
c phi_sim <-> 1
c FORMULA <-> 1
c pi_1 <-> 2
c pi_0 <-> 131
c tau_1_3_approved_1 <-> 188
c tau_1_3_approved_0 <-> 189
c tau_1_2_approved_1 <-> 194
c tau_1_2_approved_0 <-> 195
c tau_1_1_approved_1 <-> 196
c tau_1_1_approved_0 <-> 197
c tau_1_0_approved_1 <-> 198
c tau_1_0_approved_0 <-> 199
c tau_0_3_approved_1 <-> 228
c tau_0_3_approved_0 <-> 229
c tau_0_3_1 <-> 230
c tau_0_2_approved_1 <-> 239
c tau_0_2_approved_0 <-> 240
c tau_0_2_1 <-> 241
c tau_0_1_approved_1 <-> 242
c tau_0_1_approved_0 <-> 243
c tau_0_1_1 <-> 244
c tau_0_0_approved_1 <-> 245
c tau_0_0_approved_0 <-> 246
c tau_0_0_1 <-> 247
c lam_1_monthly_income <-> 251
c lam_1_age <-> 252
c lam_0_monthly_income <-> 256
c lam_0_age <-> 257
c phi_Gamma_val <-> 725
c age_P5700 <-> 729
c age_P5500 <-> 748
c monthly_income_P478500 <-> 751
c monthly_income_P478400 <-> 754
c monthly_income_P478200 <-> 759
c monthly_income_P478100 <-> 762
c age_P5400 <-> 763
c monthly_income_P668300 <-> 766
c age_P3300 <-> 767
c monthly_income_P644000 <-> 770
c age_P8000 <-> 771
c monthly_income_P519600 <-> 774
c age_P7100 <-> 775
c monthly_income_P733400 <-> 778
c monthly_income_P598100 <-> 781
c age_P7300 <-> 782
c monthly_income_P954300 <-> 785
c monthly_income_P882900 <-> 788
c age_P7900 <-> 789
c monthly_income_P462500 <-> 792
c monthly_income_P341300 <-> 795
c age_P7200 <-> 796
c monthly_income_P520200 <-> 799
c age_P6700 <-> 800
c pi_approved_0 <-> 803
c approved_P0 <-> 803
c monthly_income_P719400 <-> 804
c age_P3100 <-> 805
c monthly_income_P191700 <-> 808
c age_P5200 <-> 809
c monthly_income_P171600 <-> 812
c age_P6600 <-> 813
c monthly_income_P630400 <-> 816
c age_P4100 <-> 817
c monthly_income_P199100 <-> 820
c age_P3700 <-> 821
c monthly_income_P119800 <-> 824
c age_P6000 <-> 825
c monthly_income_P448000 <-> 828
c age_P7500 <-> 829
c monthly_income_P690400 <-> 832
c age_P7000 <-> 833
c monthly_income_P699000 <-> 836
c age_P4700 <-> 837
c pi_approved_1 <-> 839
c approved_P100 <-> 839
c monthly_income_P478300 <-> 840
c age_P5600 <-> 841
p cnf 841 2364
1 0
2 -3 0
2 -13 0
-2 13 3 0
-3 4 0
-3 118 0
3 -118 -4 0
-4 5 0
-4 251 0
4 -251 -5 0
5 -6 0
5 -123 0
-5 123 6 0
6 -7 0
6 -52 0
-6 52 7 0
7 -8 0
7 -56 0
-7 56 8 0
8 -9 0
8 -60 0
-8 60 9 0
9 -10 0
9 -62 0
-9 62 10 0
10 -11 0
10 -125 0
-10 125 11 0
11 -12 0
11 -127 0
-11 127 12 0
12 -75 0
12 -130 0
-12 130 75 0
13 -14 0
13 -45 0
-13 45 14 0
-14 15 0
-14 18 0
14 -18 -15 0
-15 16 0
-15 17 0
15 -17 -16 0
16 198 0
16 -839 0
-16 839 -198 0
17 199 0
17 -803 0
-17 803 -199 0
-18 19 0
-18 251 0
18 -251 -19 0
19 -20 0
19 -83 0
-19 83 20 0
20 -21 0
20 -85 0
-20 85 21 0
21 -22 0
21 -87 0
-21 87 22 0
22 -23 0
22 -89 0
-22 89 23 0
23 -24 0
23 -91 0
-23 91 24 0
24 -25 0
24 -93 0
-24 93 25 0
25 -26 0
25 -95 0
-25 95 26 0
26 -27 0
26 -97 0
-26 97 27 0
27 -28 0
27 -99 0
-27 99 28 0
28 -29 0
28 -101 0
-28 101 29 0
29 -30 0
29 -103 0
-29 103 30 0
30 -31 0
30 -105 0
-30 105 31 0
31 -32 0
31 -107 0
-31 107 32 0
32 -33 0
32 -109 0
-32 109 33 0
33 -34 0
33 -111 0
-33 111 34 0
34 -35 0
34 -113 0
-34 113 35 0
35 -36 0
35 -54 0
-35 54 36 0
36 -37 0
36 -58 0
-36 58 37 0
37 -38 0
37 -64 0
-37 64 38 0
38 -39 0
38 -66 0
-38 66 39 0
39 -40 0
39 -68 0
-39 68 40 0
40 -41 0
40 -115 0
-40 115 41 0
41 -42 0
41 -70 0
-41 70 42 0
42 -43 0
42 -129 0
-42 129 43 0
43 -44 0
43 -72 0
-43 72 44 0
44 -74 0
44 -116 0
-44 116 74 0
45 -46 0
45 -76 0
-45 76 46 0
-46 47 0
-46 50 0
46 -50 -47 0
-47 48 0
-47 49 0
47 -49 -48 0
48 188 0
48 -839 0
-48 839 -188 0
49 189 0
49 -803 0
-49 803 -189 0
-50 51 0
-50 252 0
50 -252 -51 0
51 -52 0
51 -53 0
-51 53 52 0
-52 770 0
-52 771 0
52 -771 -770 0
53 -54 0
53 -55 0
-53 55 54 0
-54 774 0
-54 775 0
54 -775 -774 0
55 -56 0
55 -57 0
-55 57 56 0
-56 778 0
-56 789 0
56 -789 -778 0
57 -58 0
57 -59 0
-57 59 58 0
-58 781 0
-58 782 0
58 -782 -781 0
59 -60 0
59 -61 0
-59 61 60 0
-60 785 0
-60 800 0
60 -800 -785 0
61 -62 0
61 -63 0
-61 63 62 0
-62 788 0
-62 789 0
62 -789 -788 0
63 -64 0
63 -65 0
-63 65 64 0
-64 792 0
-64 833 0
64 -833 -792 0
65 -66 0
65 -67 0
-65 67 66 0
-66 795 0
-66 796 0
66 -796 -795 0
67 -68 0
67 -69 0
-67 69 68 0
-68 799 0
-68 800 0
68 -800 -799 0
69 -70 0
69 -71 0
-69 71 70 0
-70 812 0
-70 813 0
70 -813 -812 0
71 -72 0
71 -73 0
-71 73 72 0
-72 824 0
-72 825 0
72 -825 -824 0
73 -74 0
73 -75 0
-73 75 74 0
-74 828 0
-74 829 0
74 -829 -828 0
-75 832 0
-75 833 0
75 -833 -832 0
76 -77 0
76 -117 0
-76 117 77 0
-77 78 0
-77 81 0
77 -81 -78 0
-78 79 0
-78 80 0
78 -80 -79 0
79 194 0
79 -839 0
-79 839 -194 0
80 195 0
80 -803 0
-80 803 -195 0
-81 82 0
-81 252 0
81 -252 -82 0
82 -83 0
82 -84 0
-82 84 83 0
-83 729 0
-83 759 0
83 -759 -729 0
84 -85 0
84 -86 0
-84 86 85 0
-85 729 0
-85 762 0
85 -762 -729 0
86 -87 0
86 -88 0
-86 88 87 0
-87 751 0
-87 841 0
87 -841 -751 0
88 -89 0
88 -90 0
-88 90 89 0
-89 754 0
-89 841 0
89 -841 -754 0
90 -91 0
90 -92 0
-90 92 91 0
-91 759 0
-91 841 0
91 -841 -759 0
92 -93 0
92 -94 0
-92 94 93 0
-93 762 0
-93 841 0
93 -841 -762 0
94 -95 0
94 -96 0
-94 96 95 0
-95 748 0
-95 751 0
95 -751 -748 0
96 -97 0
96 -98 0
-96 98 97 0
-97 748 0
-97 754 0
97 -754 -748 0
98 -99 0
98 -100 0
-98 100 99 0
-99 748 0
-99 840 0
99 -840 -748 0
100 -101 0
100 -102 0
-100 102 101 0
-101 748 0
-101 759 0
101 -759 -748 0
102 -103 0
102 -104 0
-102 104 103 0
-103 748 0
-103 762 0
103 -762 -748 0
104 -105 0
104 -106 0
-104 106 105 0
-105 751 0
-105 763 0
105 -763 -751 0
106 -107 0
106 -108 0
-106 108 107 0
-107 754 0
-107 763 0
107 -763 -754 0
108 -109 0
108 -110 0
-108 110 109 0
-109 763 0
-109 840 0
109 -840 -763 0
110 -111 0
110 -112 0
-110 112 111 0
-111 759 0
-111 763 0
111 -763 -759 0
112 -113 0
112 -114 0
-112 114 113 0
-113 762 0
-113 763 0
113 -763 -762 0
114 -115 0
114 -116 0
-114 116 115 0
-115 808 0
-115 809 0
115 -809 -808 0
-116 840 0
-116 841 0
116 -841 -840 0
-117 118 0
-117 121 0
117 -121 -118 0
-118 119 0
-118 120 0
118 -120 -119 0
119 196 0
119 -839 0
-119 839 -196 0
120 197 0
120 -803 0
-120 803 -197 0
-121 122 0
-121 252 0
121 -252 -122 0
122 -123 0
122 -124 0
-122 124 123 0
-123 766 0
-123 767 0
123 -767 -766 0
124 -125 0
124 -126 0
-124 126 125 0
-125 804 0
-125 805 0
125 -805 -804 0
126 -127 0
126 -128 0
-126 128 127 0
-127 816 0
-127 817 0
127 -817 -816 0
128 -129 0
128 -130 0
-128 130 129 0
-129 820 0
-129 821 0
129 -821 -820 0
-130 836 0
-130 837 0
130 -837 -836 0
131 -132 0
131 -134 0
-131 134 132 0
131 0
-132 133 0
-132 159 0
132 -159 -133 0
-133 5 0
-133 256 0
133 -256 -5 0
134 -135 0
134 -142 0
-134 142 135 0
-135 136 0
-135 141 0
135 -141 -136 0
-136 137 0
-136 138 0
136 -138 -137 0
137 245 0
137 -839 0
-137 839 -245 0
-138 139 0
-138 140 0
138 -140 -139 0
139 246 0
139 -803 0
-139 803 -246 0
140 -2 0
140 247 0
-140 -247 2 0
-141 19 0
-141 256 0
141 -256 -19 0
142 -143 0
142 -150 0
-142 150 143 0
-143 144 0
-143 149 0
143 -149 -144 0
-144 145 0
-144 146 0
144 -146 -145 0
145 228 0
145 -839 0
-145 839 -228 0
-146 147 0
-146 148 0
146 -148 -147 0
147 229 0
147 -803 0
-147 803 -229 0
148 -2 0
148 230 0
-148 -230 2 0
-149 51 0
-149 257 0
149 -257 -51 0
150 -151 0
150 -158 0
-150 158 151 0
-151 152 0
-151 157 0
151 -157 -152 0
-152 153 0
-152 154 0
152 -154 -153 0
153 239 0
153 -839 0
-153 839 -239 0
-154 155 0
-154 156 0
154 -156 -155 0
155 240 0
155 -803 0
-155 803 -240 0
156 -2 0
156 241 0
-156 -241 2 0
-157 82 0
-157 257 0
157 -257 -82 0
-158 159 0
-158 164 0
158 -164 -159 0
-159 160 0
-159 161 0
159 -161 -160 0
160 242 0
160 -839 0
-160 839 -242 0
-161 162 0
-161 163 0
161 -163 -162 0
162 243 0
162 -803 0
-162 803 -243 0
163 -2 0
163 244 0
-163 -244 2 0
-164 122 0
-164 257 0
164 -257 -122 0
165 251 0
165 -166 0
-165 166 -251 0
165 0
-166 -188 0
-166 167 0
166 -167 188 0
-167 -189 0
-167 168 0
167 -168 189 0
-168 -194 0
-168 -195 0
168 195 194 0
169 256 0
169 -170 0
-169 170 -256 0
169 0
-170 -228 0
-170 171 0
170 -171 228 0
-171 -229 0
-171 172 0
171 -172 229 0
-172 -230 0
-172 173 0
172 -173 230 0
-173 -239 0
-173 174 0
173 -174 239 0
-174 -240 0
-174 -241 0
174 241 240 0
175 251 0
175 -176 0
-175 176 -251 0
175 0
-176 177 0
-176 180 0
176 -180 -177 0
177 -178 0
177 -179 0
-177 179 178 0
-178 -197 0
-178 196 0
178 -196 197 0
-179 -196 0
-179 197 0
179 -197 196 0
180 -181 0
180 -182 0
-180 182 181 0
-181 -199 0
-181 198 0
181 -198 199 0
-182 -198 0
-182 199 0
182 -199 198 0
183 252 0
183 -184 0
-183 184 -252 0
183 0
-184 185 0
-184 190 0
184 -190 -185 0
185 -186 0
185 -187 0
-185 187 186 0
-186 -189 0
-186 188 0
186 -188 189 0
-187 -188 0
-187 189 0
187 -189 188 0
-190 176 0
-190 191 0
190 -191 -176 0
191 -192 0
191 -193 0
-191 193 192 0
-192 -195 0
-192 194 0
192 -194 195 0
-193 -194 0
-193 195 0
193 -195 194 0
200 256 0
200 -201 0
-200 201 -256 0
200 0
-201 202 0
-201 210 0
201 -210 -202 0
202 -203 0
202 -208 0
-202 208 203 0
203 -204 0
203 -206 0
-203 206 204 0
-204 205 0
-204 242 0
204 -242 -205 0
-205 -243 0
-205 -244 0
205 244 243 0
-206 207 0
-206 243 0
206 -243 -207 0
-207 -242 0
-207 -244 0
207 244 242 0
-208 209 0
-208 244 0
208 -244 -209 0
-209 -242 0
-209 -243 0
209 243 242 0
210 -211 0
210 -216 0
-210 216 211 0
211 -212 0
211 -214 0
-211 214 212 0
-212 213 0
-212 245 0
212 -245 -213 0
-213 -246 0
-213 -247 0
213 247 246 0
-214 215 0
-214 246 0
214 -246 -215 0
-215 -245 0
-215 -247 0
215 247 245 0
-216 217 0
-216 247 0
216 -247 -217 0
-217 -245 0
-217 -246 0
217 246 245 0
218 257 0
218 -219 0
-218 219 -257 0
218 0
-219 220 0
-219 231 0
219 -231 -220 0
220 -221 0
220 -226 0
-220 226 221 0
221 -222 0
221 -224 0
-221 224 222 0
-222 223 0
-222 228 0
222 -228 -223 0
-223 -229 0
-223 -230 0
223 230 229 0
-224 225 0
-224 229 0
224 -229 -225 0
-225 -228 0
-225 -230 0
225 230 228 0
-226 227 0
-226 230 0
226 -230 -227 0
-227 -228 0
-227 -229 0
227 229 228 0
-231 201 0
-231 232 0
231 -232 -201 0
232 -233 0
232 -237 0
-232 237 233 0
233 -234 0
233 -235 0
-233 235 234 0
-234 174 0
-234 239 0
234 -239 -174 0
-235 236 0
-235 240 0
235 -240 -236 0
-236 -239 0
-236 -241 0
236 241 239 0
-237 238 0
-237 241 0
237 -241 -238 0
-238 -239 0
-238 -240 0
238 240 239 0
248 -249 0
248 -250 0
-248 250 249 0
248 0
-249 -252 0
-249 251 0
249 -251 252 0
-250 -251 0
-250 252 0
250 -252 251 0
253 -254 0
253 -255 0
-253 255 254 0
253 0
-254 -257 0
-254 256 0
254 -256 257 0
-255 -256 0
-255 257 0
255 -257 256 0
258 839 0
258 803 0
-258 -803 -839 0
258 0
259 754 0
259 751 0
-259 -751 -754 0
259 0
260 759 0
260 -261 0
-260 261 -759 0
260 0
-261 -754 0
-261 -751 0
261 751 754 0
262 762 0
262 -263 0
-262 263 -762 0
262 0
-263 -751 0
-263 264 0
263 -264 751 0
-264 -754 0
-264 -759 0
264 759 754 0
265 766 0
265 -266 0
-265 266 -766 0
265 0
-266 -751 0
-266 267 0
266 -267 751 0
-267 -754 0
-267 268 0
267 -268 754 0
-268 -759 0
-268 -762 0
268 762 759 0
269 770 0
269 -270 0
-269 270 -770 0
269 0
-270 -751 0
-270 271 0
270 -271 751 0
-271 -754 0
-271 272 0
271 -272 754 0
-272 -759 0
-272 273 0
272 -273 759 0
-273 -762 0
-273 -766 0
273 766 762 0
274 774 0
274 -275 0
-274 275 -774 0
274 0
-275 -751 0
-275 276 0
275 -276 751 0
-276 -754 0
-276 277 0
276 -277 754 0
-277 -759 0
-277 278 0
277 -278 759 0
-278 -762 0
-278 279 0
278 -279 762 0
-279 -766 0
-279 -770 0
279 770 766 0
280 778 0
280 -281 0
-280 281 -778 0
280 0
-281 -751 0
-281 282 0
281 -282 751 0
-282 -754 0
-282 283 0
282 -283 754 0
-283 -759 0
-283 284 0
283 -284 759 0
-284 -762 0
-284 285 0
284 -285 762 0
-285 -766 0
-285 286 0
285 -286 766 0
-286 -770 0
-286 -774 0
286 774 770 0
287 781 0
287 -288 0
-287 288 -781 0
287 0
-288 -751 0
-288 289 0
288 -289 751 0
-289 -754 0
-289 290 0
289 -290 754 0
-290 -759 0
-290 291 0
290 -291 759 0
-291 -762 0
-291 292 0
291 -292 762 0
-292 -766 0
-292 293 0
292 -293 766 0
-293 -770 0
-293 294 0
293 -294 770 0
-294 -774 0
-294 -778 0
294 778 774 0
295 785 0
295 -296 0
-295 296 -785 0
295 0
-296 -751 0
-296 297 0
296 -297 751 0
-297 -754 0
-297 298 0
297 -298 754 0
-298 -759 0
-298 299 0
298 -299 759 0
-299 -762 0
-299 300 0
299 -300 762 0
-300 -766 0
-300 301 0
300 -301 766 0
-301 -770 0
-301 302 0
301 -302 770 0
-302 -774 0
-302 303 0
302 -303 774 0
-303 -778 0
-303 -781 0
303 781 778 0
304 788 0
304 -305 0
-304 305 -788 0
304 0
-305 -751 0
-305 306 0
305 -306 751 0
-306 -754 0
-306 307 0
306 -307 754 0
-307 -759 0
-307 308 0
307 -308 759 0
-308 -762 0
-308 309 0
308 -309 762 0
-309 -766 0
-309 310 0
309 -310 766 0
-310 -770 0
-310 311 0
310 -311 770 0
-311 -774 0
-311 312 0
311 -312 774 0
-312 -778 0
-312 313 0
312 -313 778 0
-313 -781 0
-313 -785 0
313 785 781 0
314 792 0
314 -315 0
-314 315 -792 0
314 0
-315 -751 0
-315 316 0
315 -316 751 0
-316 -754 0
-316 317 0
316 -317 754 0
-317 -759 0
-317 318 0
317 -318 759 0
-318 -762 0
-318 319 0
318 -319 762 0
-319 -766 0
-319 320 0
319 -320 766 0
-320 -770 0
-320 321 0
320 -321 770 0
-321 -774 0
-321 322 0
321 -322 774 0
-322 -778 0
-322 323 0
322 -323 778 0
-323 -781 0
-323 324 0
323 -324 781 0
-324 -785 0
-324 -788 0
324 788 785 0
325 795 0
325 -326 0
-325 326 -795 0
325 0
-326 -751 0
-326 327 0
326 -327 751 0
-327 -754 0
-327 328 0
327 -328 754 0
-328 -759 0
-328 329 0
328 -329 759 0
-329 -762 0
-329 330 0
329 -330 762 0
-330 -766 0
-330 331 0
330 -331 766 0
-331 -770 0
-331 332 0
331 -332 770 0
-332 -774 0
-332 333 0
332 -333 774 0
-333 -778 0
-333 334 0
333 -334 778 0
-334 -781 0
-334 335 0
334 -335 781 0
-335 -785 0
-335 336 0
335 -336 785 0
-336 -788 0
-336 -792 0
336 792 788 0
337 799 0
337 -338 0
-337 338 -799 0
337 0
-338 -751 0
-338 339 0
338 -339 751 0
-339 -754 0
-339 340 0
339 -340 754 0
-340 -759 0
-340 341 0
340 -341 759 0
-341 -762 0
-341 342 0
341 -342 762 0
-342 -766 0
-342 343 0
342 -343 766 0
-343 -770 0
-343 344 0
343 -344 770 0
-344 -774 0
-344 345 0
344 -345 774 0
-345 -778 0
-345 346 0
345 -346 778 0
-346 -781 0
-346 347 0
346 -347 781 0
-347 -785 0
-347 348 0
347 -348 785 0
-348 -788 0
-348 349 0
348 -349 788 0
-349 -792 0
-349 -795 0
349 795 792 0
350 804 0
350 -351 0
-350 351 -804 0
350 0
-351 -751 0
-351 352 0
351 -352 751 0
-352 -754 0
-352 353 0
352 -353 754 0
-353 -759 0
-353 354 0
353 -354 759 0
-354 -762 0
-354 355 0
354 -355 762 0
-355 -766 0
-355 356 0
355 -356 766 0
-356 -770 0
-356 357 0
356 -357 770 0
-357 -774 0
-357 358 0
357 -358 774 0
-358 -778 0
-358 359 0
358 -359 778 0
-359 -781 0
-359 360 0
359 -360 781 0
-360 -785 0
-360 361 0
360 -361 785 0
-361 -788 0
-361 362 0
361 -362 788 0
-362 -792 0
-362 363 0
362 -363 792 0
-363 -795 0
-363 -799 0
363 799 795 0
364 808 0
364 -365 0
-364 365 -808 0
364 0
-365 -751 0
-365 366 0
365 -366 751 0
-366 -754 0
-366 367 0
366 -367 754 0
-367 -759 0
-367 368 0
367 -368 759 0
-368 -762 0
-368 369 0
368 -369 762 0
-369 -766 0
-369 370 0
369 -370 766 0
-370 -770 0
-370 371 0
370 -371 770 0
-371 -774 0
-371 372 0
371 -372 774 0
-372 -778 0
-372 373 0
372 -373 778 0
-373 -781 0
-373 374 0
373 -374 781 0
-374 -785 0
-374 375 0
374 -375 785 0
-375 -788 0
-375 376 0
375 -376 788 0
-376 -792 0
-376 377 0
376 -377 792 0
-377 -795 0
-377 378 0
377 -378 795 0
-378 -799 0
-378 -804 0
378 804 799 0
379 812 0
379 -380 0
-379 380 -812 0
379 0
-380 -751 0
-380 381 0
380 -381 751 0
-381 -754 0
-381 382 0
381 -382 754 0
-382 -759 0
-382 383 0
382 -383 759 0
-383 -762 0
-383 384 0
383 -384 762 0
-384 -766 0
-384 385 0
384 -385 766 0
-385 -770 0
-385 386 0
385 -386 770 0
-386 -774 0
-386 387 0
386 -387 774 0
-387 -778 0
-387 388 0
387 -388 778 0
-388 -781 0
-388 389 0
388 -389 781 0
-389 -785 0
-389 390 0
389 -390 785 0
-390 -788 0
-390 391 0
390 -391 788 0
-391 -792 0
-391 392 0
391 -392 792 0
-392 -795 0
-392 393 0
392 -393 795 0
-393 -799 0
-393 394 0
393 -394 799 0
-394 -804 0
-394 -808 0
394 808 804 0
395 816 0
395 -396 0
-395 396 -816 0
395 0
-396 -751 0
-396 397 0
396 -397 751 0
-397 -754 0
-397 398 0
397 -398 754 0
-398 -759 0
-398 399 0
398 -399 759 0
-399 -762 0
-399 400 0
399 -400 762 0
-400 -766 0
-400 401 0
400 -401 766 0
-401 -770 0
-401 402 0
401 -402 770 0
-402 -774 0
-402 403 0
402 -403 774 0
-403 -778 0
-403 404 0
403 -404 778 0
-404 -781 0
-404 405 0
404 -405 781 0
-405 -785 0
-405 406 0
405 -406 785 0
-406 -788 0
-406 407 0
406 -407 788 0
-407 -792 0
-407 408 0
407 -408 792 0
-408 -795 0
-408 409 0
408 -409 795 0
-409 -799 0
-409 410 0
409 -410 799 0
-410 -804 0
-410 411 0
410 -411 804 0
-411 -808 0
-411 -812 0
411 812 808 0
412 820 0
412 -413 0
-412 413 -820 0
412 0
-413 -751 0
-413 414 0
413 -414 751 0
-414 -754 0
-414 415 0
414 -415 754 0
-415 -759 0
-415 416 0
415 -416 759 0
-416 -762 0
-416 417 0
416 -417 762 0
-417 -766 0
-417 418 0
417 -418 766 0
-418 -770 0
-418 419 0
418 -419 770 0
-419 -774 0
-419 420 0
419 -420 774 0
-420 -778 0
-420 421 0
420 -421 778 0
-421 -781 0
-421 422 0
421 -422 781 0
-422 -785 0
-422 423 0
422 -423 785 0
-423 -788 0
-423 424 0
423 -424 788 0
-424 -792 0
-424 425 0
424 -425 792 0
-425 -795 0
-425 426 0
425 -426 795 0
-426 -799 0
-426 427 0
426 -427 799 0
-427 -804 0
-427 428 0
427 -428 804 0
-428 -808 0
-428 429 0
428 -429 808 0
-429 -812 0
-429 -816 0
429 816 812 0
430 824 0
430 -431 0
-430 431 -824 0
430 0
-431 -751 0
-431 432 0
431 -432 751 0
-432 -754 0
-432 433 0
432 -433 754 0
-433 -759 0
-433 434 0
433 -434 759 0
-434 -762 0
-434 435 0
434 -435 762 0
-435 -766 0
-435 436 0
435 -436 766 0
-436 -770 0
-436 437 0
436 -437 770 0
-437 -774 0
-437 438 0
437 -438 774 0
-438 -778 0
-438 439 0
438 -439 778 0
-439 -781 0
-439 440 0
439 -440 781 0
-440 -785 0
-440 441 0
440 -441 785 0
-441 -788 0
-441 442 0
441 -442 788 0
-442 -792 0
-442 443 0
442 -443 792 0
-443 -795 0
-443 444 0
443 -444 795 0
-444 -799 0
-444 445 0
444 -445 799 0
-445 -804 0
-445 446 0
445 -446 804 0
-446 -808 0
-446 447 0
446 -447 808 0
-447 -812 0
-447 448 0
447 -448 812 0
-448 -816 0
-448 -820 0
448 820 816 0
449 828 0
449 -450 0
-449 450 -828 0
449 0
-450 -751 0
-450 451 0
450 -451 751 0
-451 -754 0
-451 452 0
451 -452 754 0
-452 -759 0
-452 453 0
452 -453 759 0
-453 -762 0
-453 454 0
453 -454 762 0
-454 -766 0
-454 455 0
454 -455 766 0
-455 -770 0
-455 456 0
455 -456 770 0
-456 -774 0
-456 457 0
456 -457 774 0
-457 -778 0
-457 458 0
457 -458 778 0
-458 -781 0
-458 459 0
458 -459 781 0
-459 -785 0
-459 460 0
459 -460 785 0
-460 -788 0
-460 461 0
460 -461 788 0
-461 -792 0
-461 462 0
461 -462 792 0
-462 -795 0
-462 463 0
462 -463 795 0
-463 -799 0
-463 464 0
463 -464 799 0
-464 -804 0
-464 465 0
464 -465 804 0
-465 -808 0
-465 466 0
465 -466 808 0
-466 -812 0
-466 467 0
466 -467 812 0
-467 -816 0
-467 468 0
467 -468 816 0
-468 -820 0
-468 -824 0
468 824 820 0
469 832 0
469 -470 0
-469 470 -832 0
469 0
-470 -751 0
-470 471 0
470 -471 751 0
-471 -754 0
-471 472 0
471 -472 754 0
-472 -759 0
-472 473 0
472 -473 759 0
-473 -762 0
-473 474 0
473 -474 762 0
-474 -766 0
-474 475 0
474 -475 766 0
-475 -770 0
-475 476 0
475 -476 770 0
-476 -774 0
-476 477 0
476 -477 774 0
-477 -778 0
-477 478 0
477 -478 778 0
-478 -781 0
-478 479 0
478 -479 781 0
-479 -785 0
-479 480 0
479 -480 785 0
-480 -788 0
-480 481 0
480 -481 788 0
-481 -792 0
-481 482 0
481 -482 792 0
-482 -795 0
-482 483 0
482 -483 795 0
-483 -799 0
-483 484 0
483 -484 799 0
-484 -804 0
-484 485 0
484 -485 804 0
-485 -808 0
-485 486 0
485 -486 808 0
-486 -812 0
-486 487 0
486 -487 812 0
-487 -816 0
-487 488 0
487 -488 816 0
-488 -820 0
-488 489 0
488 -489 820 0
-489 -824 0
-489 -828 0
489 828 824 0
490 836 0
490 -491 0
-490 491 -836 0
490 0
-491 -751 0
-491 492 0
491 -492 751 0
-492 -754 0
-492 493 0
492 -493 754 0
-493 -759 0
-493 494 0
493 -494 759 0
-494 -762 0
-494 495 0
494 -495 762 0
-495 -766 0
-495 496 0
495 -496 766 0
-496 -770 0
-496 497 0
496 -497 770 0
-497 -774 0
-497 498 0
497 -498 774 0
-498 -778 0
-498 499 0
498 -499 778 0
-499 -781 0
-499 500 0
499 -500 781 0
-500 -785 0
-500 501 0
500 -501 785 0
-501 -788 0
-501 502 0
501 -502 788 0
-502 -792 0
-502 503 0
502 -503 792 0
-503 -795 0
-503 504 0
503 -504 795 0
-504 -799 0
-504 505 0
504 -505 799 0
-505 -804 0
-505 506 0
505 -506 804 0
-506 -808 0
-506 507 0
506 -507 808 0
-507 -812 0
-507 508 0
507 -508 812 0
-508 -816 0
-508 509 0
508 -509 816 0
-509 -820 0
-509 510 0
509 -510 820 0
-510 -824 0
-510 511 0
510 -511 824 0
-511 -828 0
-511 -832 0
511 832 828 0
512 840 0
512 -513 0
-512 513 -840 0
512 0
-513 -751 0
-513 514 0
513 -514 751 0
-514 -754 0
-514 515 0
514 -515 754 0
-515 -759 0
-515 516 0
515 -516 759 0
-516 -762 0
-516 517 0
516 -517 762 0
-517 -766 0
-517 518 0
517 -518 766 0
-518 -770 0
-518 519 0
518 -519 770 0
-519 -774 0
-519 520 0
519 -520 774 0
-520 -778 0
-520 521 0
520 -521 778 0
-521 -781 0
-521 522 0
521 -522 781 0
-522 -785 0
-522 523 0
522 -523 785 0
-523 -788 0
-523 524 0
523 -524 788 0
-524 -792 0
-524 525 0
524 -525 792 0
-525 -795 0
-525 526 0
525 -526 795 0
-526 -799 0
-526 527 0
526 -527 799 0
-527 -804 0
-527 528 0
527 -528 804 0
-528 -808 0
-528 529 0
528 -529 808 0
-529 -812 0
-529 530 0
529 -530 812 0
-530 -816 0
-530 531 0
530 -531 816 0
-531 -820 0
-531 532 0
531 -532 820 0
-532 -824 0
-532 533 0
532 -533 824 0
-533 -828 0
-533 534 0
533 -534 828 0
-534 -832 0
-534 -836 0
534 836 832 0
535 748 0
535 729 0
-535 -729 -748 0
535 0
536 763 0
536 -537 0
-536 537 -763 0
536 0
-537 -748 0
-537 -729 0
537 729 748 0
538 767 0
538 -539 0
-538 539 -767 0
538 0
-539 -729 0
-539 540 0
539 -540 729 0
-540 -748 0
-540 -763 0
540 763 748 0
541 771 0
541 -542 0
-541 542 -771 0
541 0
-542 -729 0
-542 543 0
542 -543 729 0
-543 -748 0
-543 544 0
543 -544 748 0
-544 -763 0
-544 -767 0
544 767 763 0
545 775 0
545 -546 0
-545 546 -775 0
545 0
-546 -729 0
-546 547 0
546 -547 729 0
-547 -748 0
-547 548 0
547 -548 748 0
-548 -763 0
-548 549 0
548 -549 763 0
-549 -767 0
-549 -771 0
549 771 767 0
550 782 0
550 -551 0
-550 551 -782 0
550 0
-551 -729 0
-551 552 0
551 -552 729 0
-552 -748 0
-552 553 0
552 -553 748 0
-553 -763 0
-553 554 0
553 -554 763 0
-554 -767 0
-554 555 0
554 -555 767 0
-555 -771 0
-555 -775 0
555 775 771 0
556 789 0
556 -557 0
-556 557 -789 0
556 0
-557 -729 0
-557 558 0
557 -558 729 0
-558 -748 0
-558 559 0
558 -559 748 0
-559 -763 0
-559 560 0
559 -560 763 0
-560 -767 0
-560 561 0
560 -561 767 0
-561 -771 0
-561 562 0
561 -562 771 0
-562 -775 0
-562 -782 0
562 782 775 0
563 796 0
563 -564 0
-563 564 -796 0
563 0
-564 -729 0
-564 565 0
564 -565 729 0
-565 -748 0
-565 566 0
565 -566 748 0
-566 -763 0
-566 567 0
566 -567 763 0
-567 -767 0
-567 568 0
567 -568 767 0
-568 -771 0
-568 569 0
568 -569 771 0
-569 -775 0
-569 570 0
569 -570 775 0
-570 -782 0
-570 -789 0
570 789 782 0
571 800 0
571 -572 0
-571 572 -800 0
571 0
-572 -729 0
-572 573 0
572 -573 729 0
-573 -748 0
-573 574 0
573 -574 748 0
-574 -763 0
-574 575 0
574 -575 763 0
-575 -767 0
-575 576 0
575 -576 767 0
-576 -771 0
-576 577 0
576 -577 771 0
-577 -775 0
-577 578 0
577 -578 775 0
-578 -782 0
-578 579 0
578 -579 782 0
-579 -789 0
-579 -796 0
579 796 789 0
580 805 0
580 -581 0
-580 581 -805 0
580 0
-581 -729 0
-581 582 0
581 -582 729 0
-582 -748 0
-582 583 0
582 -583 748 0
-583 -763 0
-583 584 0
583 -584 763 0
-584 -767 0
-584 585 0
584 -585 767 0
-585 -771 0
-585 586 0
585 -586 771 0
-586 -775 0
-586 587 0
586 -587 775 0
-587 -782 0
-587 588 0
587 -588 782 0
-588 -789 0
-588 589 0
588 -589 789 0
-589 -796 0
-589 -800 0
589 800 796 0
590 809 0
590 -591 0
-590 591 -809 0
590 0
-591 -729 0
-591 592 0
591 -592 729 0
-592 -748 0
-592 593 0
592 -593 748 0
-593 -763 0
-593 594 0
593 -594 763 0
-594 -767 0
-594 595 0
594 -595 767 0
-595 -771 0
-595 596 0
595 -596 771 0
-596 -775 0
-596 597 0
596 -597 775 0
-597 -782 0
-597 598 0
597 -598 782 0
-598 -789 0
-598 599 0
598 -599 789 0
-599 -796 0
-599 600 0
599 -600 796 0
-600 -800 0
-600 -805 0
600 805 800 0
601 813 0
601 -602 0
-601 602 -813 0
601 0
-602 -729 0
-602 603 0
602 -603 729 0
-603 -748 0
-603 604 0
603 -604 748 0
-604 -763 0
-604 605 0
604 -605 763 0
-605 -767 0
-605 606 0
605 -606 767 0
-606 -771 0
-606 607 0
606 -607 771 0
-607 -775 0
-607 608 0
607 -608 775 0
-608 -782 0
-608 609 0
608 -609 782 0
-609 -789 0
-609 610 0
609 -610 789 0
-610 -796 0
-610 611 0
610 -611 796 0
-611 -800 0
-611 612 0
611 -612 800 0
-612 -805 0
-612 -809 0
612 809 805 0
613 817 0
613 -614 0
-613 614 -817 0
613 0
-614 -729 0
-614 615 0
614 -615 729 0
-615 -748 0
-615 616 0
615 -616 748 0
-616 -763 0
-616 617 0
616 -617 763 0
-617 -767 0
-617 618 0
617 -618 767 0
-618 -771 0
-618 619 0
618 -619 771 0
-619 -775 0
-619 620 0
619 -620 775 0
-620 -782 0
-620 621 0
620 -621 782 0
-621 -789 0
-621 622 0
621 -622 789 0
-622 -796 0
-622 623 0
622 -623 796 0
-623 -800 0
-623 624 0
623 -624 800 0
-624 -805 0
-624 625 0
624 -625 805 0
-625 -809 0
-625 -813 0
625 813 809 0
626 821 0
626 -627 0
-626 627 -821 0
626 0
-627 -729 0
-627 628 0
627 -628 729 0
-628 -748 0
-628 629 0
628 -629 748 0
-629 -763 0
-629 630 0
629 -630 763 0
-630 -767 0
-630 631 0
630 -631 767 0
-631 -771 0
-631 632 0
631 -632 771 0
-632 -775 0
-632 633 0
632 -633 775 0
-633 -782 0
-633 634 0
633 -634 782 0
-634 -789 0
-634 635 0
634 -635 789 0
-635 -796 0
-635 636 0
635 -636 796 0
-636 -800 0
-636 637 0
636 -637 800 0
-637 -805 0
-637 638 0
637 -638 805 0
-638 -809 0
-638 639 0
638 -639 809 0
-639 -813 0
-639 -817 0
639 817 813 0
640 825 0
640 -641 0
-640 641 -825 0
640 0
-641 -729 0
-641 642 0
641 -642 729 0
-642 -748 0
-642 643 0
642 -643 748 0
-643 -763 0
-643 644 0
643 -644 763 0
-644 -767 0
-644 645 0
644 -645 767 0
-645 -771 0
-645 646 0
645 -646 771 0
-646 -775 0
-646 647 0
646 -647 775 0
-647 -782 0
-647 648 0
647 -648 782 0
-648 -789 0
-648 649 0
648 -649 789 0
-649 -796 0
-649 650 0
649 -650 796 0
-650 -800 0
-650 651 0
650 -651 800 0
-651 -805 0
-651 652 0
651 -652 805 0
-652 -809 0
-652 653 0
652 -653 809 0
-653 -813 0
-653 654 0
653 -654 813 0
-654 -817 0
-654 -821 0
654 821 817 0
655 829 0
655 -656 0
-655 656 -829 0
655 0
-656 -729 0
-656 657 0
656 -657 729 0
-657 -748 0
-657 658 0
657 -658 748 0
-658 -763 0
-658 659 0
658 -659 763 0
-659 -767 0
-659 660 0
659 -660 767 0
-660 -771 0
-660 661 0
660 -661 771 0
-661 -775 0
-661 662 0
661 -662 775 0
-662 -782 0
-662 663 0
662 -663 782 0
-663 -789 0
-663 664 0
663 -664 789 0
-664 -796 0
-664 665 0
664 -665 796 0
-665 -800 0
-665 666 0
665 -666 800 0
-666 -805 0
-666 667 0
666 -667 805 0
-667 -809 0
-667 668 0
667 -668 809 0
-668 -813 0
-668 669 0
668 -669 813 0
-669 -817 0
-669 670 0
669 -670 817 0
-670 -821 0
-670 -825 0
670 825 821 0
671 833 0
671 -672 0
-671 672 -833 0
671 0
-672 -729 0
-672 673 0
672 -673 729 0
-673 -748 0
-673 674 0
673 -674 748 0
-674 -763 0
-674 675 0
674 -675 763 0
-675 -767 0
-675 676 0
675 -676 767 0
-676 -771 0
-676 677 0
676 -677 771 0
-677 -775 0
-677 678 0
677 -678 775 0
-678 -782 0
-678 679 0
678 -679 782 0
-679 -789 0
-679 680 0
679 -680 789 0
-680 -796 0
-680 681 0
680 -681 796 0
-681 -800 0
-681 682 0
681 -682 800 0
-682 -805 0
-682 683 0
682 -683 805 0
-683 -809 0
-683 684 0
683 -684 809 0
-684 -813 0
-684 685 0
684 -685 813 0
-685 -817 0
-685 686 0
685 -686 817 0
-686 -821 0
-686 687 0
686 -687 821 0
-687 -825 0
-687 -829 0
687 829 825 0
688 837 0
688 -689 0
-688 689 -837 0
688 0
-689 -729 0
-689 690 0
689 -690 729 0
-690 -748 0
-690 691 0
690 -691 748 0
-691 -763 0
-691 692 0
691 -692 763 0
-692 -767 0
-692 693 0
692 -693 767 0
-693 -771 0
-693 694 0
693 -694 771 0
-694 -775 0
-694 695 0
694 -695 775 0
-695 -782 0
-695 696 0
695 -696 782 0
-696 -789 0
-696 697 0
696 -697 789 0
-697 -796 0
-697 698 0
697 -698 796 0
-698 -800 0
-698 699 0
698 -699 800 0
-699 -805 0
-699 700 0
699 -700 805 0
-700 -809 0
-700 701 0
700 -701 809 0
-701 -813 0
-701 702 0
701 -702 813 0
-702 -817 0
-702 703 0
702 -703 817 0
-703 -821 0
-703 704 0
703 -704 821 0
-704 -825 0
-704 705 0
704 -705 825 0
-705 -829 0
-705 -833 0
705 833 829 0
706 841 0
706 -707 0
-706 707 -841 0
706 0
-707 -729 0
-707 708 0
707 -708 729 0
-708 -748 0
-708 709 0
708 -709 748 0
-709 -763 0
-709 710 0
709 -710 763 0
-710 -767 0
-710 711 0
710 -711 767 0
-711 -771 0
-711 712 0
711 -712 771 0
-712 -775 0
-712 713 0
712 -713 775 0
-713 -782 0
-713 714 0
713 -714 782 0
-714 -789 0
-714 715 0
714 -715 789 0
-715 -796 0
-715 716 0
715 -716 796 0
-716 -800 0
-716 717 0
716 -717 800 0
-717 -805 0
-717 718 0
717 -718 805 0
-718 -809 0
-718 719 0
718 -719 809 0
-719 -813 0
-719 720 0
719 -720 813 0
-720 -817 0
-720 721 0
720 -721 817 0
-721 -821 0
-721 722 0
721 -722 821 0
-722 -825 0
-722 723 0
722 -723 825 0
-723 -829 0
-723 724 0
723 -724 829 0
-724 -833 0
-724 -837 0
724 837 833 0
725 -726 0
725 -727 0
-725 727 726 0
725 0
-726 83 0
-726 839 0
726 -839 -83 0
727 -728 0
727 -730 0
-727 730 728 0
-728 85 0
-728 839 0
728 -839 -85 0
730 -731 0
730 -732 0
-730 732 731 0
-731 87 0
-731 839 0
731 -839 -87 0
732 -733 0
732 -734 0
-732 734 733 0
-733 89 0
-733 839 0
733 -839 -89 0
734 -735 0
734 -736 0
-734 736 735 0
-735 91 0
-735 839 0
735 -839 -91 0
736 -737 0
736 -738 0
-736 738 737 0
-737 93 0
-737 839 0
737 -839 -93 0
738 -739 0
738 -740 0
-738 740 739 0
-739 95 0
-739 839 0
739 -839 -95 0
740 -741 0
740 -742 0
-740 742 741 0
-741 97 0
-741 839 0
741 -839 -97 0
742 -743 0
742 -744 0
-742 744 743 0
-743 99 0
-743 839 0
743 -839 -99 0
744 -745 0
744 -746 0
-744 746 745 0
-745 101 0
-745 839 0
745 -839 -101 0
746 -747 0
746 -749 0
-746 749 747 0
-747 103 0
-747 839 0
747 -839 -103 0
749 -750 0
749 -752 0
-749 752 750 0
-750 105 0
-750 839 0
750 -839 -105 0
752 -753 0
752 -755 0
-752 755 753 0
-753 107 0
-753 839 0
753 -839 -107 0
755 -756 0
755 -757 0
-755 757 756 0
-756 109 0
-756 839 0
756 -839 -109 0
757 -758 0
757 -760 0
-757 760 758 0
-758 111 0
-758 839 0
758 -839 -111 0
760 -761 0
760 -764 0
-760 764 761 0
-761 113 0
-761 839 0
761 -839 -113 0
764 -765 0
764 -768 0
-764 768 765 0
-765 123 0
-765 839 0
765 -839 -123 0
768 -769 0
768 -772 0
-768 772 769 0
-769 52 0
-769 839 0
769 -839 -52 0
772 -773 0
772 -776 0
-772 776 773 0
-773 54 0
-773 839 0
773 -839 -54 0
776 -777 0
776 -779 0
-776 779 777 0
-777 56 0
-777 839 0
777 -839 -56 0
779 -780 0
779 -783 0
-779 783 780 0
-780 58 0
-780 839 0
780 -839 -58 0
783 -784 0
783 -786 0
-783 786 784 0
-784 60 0
-784 839 0
784 -839 -60 0
786 -787 0
786 -790 0
-786 790 787 0
-787 62 0
-787 839 0
787 -839 -62 0
790 -791 0
790 -793 0
-790 793 791 0
-791 64 0
-791 839 0
791 -839 -64 0
793 -794 0
793 -797 0
-793 797 794 0
-794 66 0
-794 839 0
794 -839 -66 0
797 -798 0
797 -801 0
-797 801 798 0
-798 68 0
-798 839 0
798 -839 -68 0
801 -802 0
801 -806 0
-801 806 802 0
-802 125 0
-802 803 0
802 -803 -125 0
806 -807 0
806 -810 0
-806 810 807 0
-807 115 0
-807 839 0
807 -839 -115 0
810 -811 0
810 -814 0
-810 814 811 0
-811 70 0
-811 839 0
811 -839 -70 0
814 -815 0
814 -818 0
-814 818 815 0
-815 127 0
-815 839 0
815 -839 -127 0
818 -819 0
818 -822 0
-818 822 819 0
-819 129 0
-819 839 0
819 -839 -129 0
822 -823 0
822 -826 0
-822 826 823 0
-823 72 0
-823 839 0
823 -839 -72 0
826 -827 0
826 -830 0
-826 830 827 0
-827 74 0
-827 839 0
827 -839 -74 0
830 -831 0
830 -834 0
-830 834 831 0
-831 75 0
-831 839 0
831 -839 -75 0
834 -835 0
834 -838 0
-834 838 835 0
-835 130 0
-835 839 0
835 -839 -130 0
-838 116 0
-838 839 0
838 -839 -116 0
